p cnf 60 249
1 4 7 0
10 13 16 0
19 22 25 0
28 31 34 0
37 40 43 0
2 5 8 0
11 14 17 0
20 23 26 0
29 32 35 0
38 41 44 0
3 6 9 0
12 15 18 0
21 24 27 0
30 33 36 0
39 42 45 0
1 2 3 0
4 5 6 0
7 8 9 0
10 11 12 0
13 14 15 0
16 17 18 0
19 20 21 0
22 23 24 0
25 26 27 0
28 29 30 0
31 32 33 0
34 35 36 0
37 38 39 0
40 41 42 0
43 44 45 0
-1 -4 0
-1 -7 0
-2 -5 0
-2 -8 0
-3 -6 0
-3 -9 0
-4 -7 0
-5 -8 0
-6 -9 0
-10 -13 0
-10 -16 0
-11 -14 0
-11 -17 0
-12 -15 0
-12 -18 0
-13 -16 0
-14 -17 0
-15 -18 0
-19 -22 0
-19 -25 0
-20 -23 0
-20 -26 0
-21 -24 0
-21 -27 0
-22 -25 0
-23 -26 0
-24 -27 0
-28 -31 0
-28 -34 0
-29 -32 0
-29 -35 0
-30 -33 0
-30 -36 0
-31 -34 0
-32 -35 0
-33 -36 0
-37 -40 0
-37 -43 0
-38 -41 0
-38 -44 0
-39 -42 0
-39 -45 0
-40 -43 0
-41 -44 0
-42 -45 0
-46 1 4 7 0
-49 10 13 16 0
-52 19 22 25 0
-55 28 31 34 0
-58 37 40 43 0
-47 2 5 8 0
-50 11 14 17 0
-53 20 23 26 0
-56 29 32 35 0
-59 38 41 44 0
-48 3 6 9 0
-51 12 15 18 0
-54 21 24 27 0
-57 30 33 36 0
-60 39 42 45 0
-46 -47 -49 -50 0
-46 -47 -52 -53 0
-46 -47 -55 -56 0
-46 -47 -58 -59 0
-46 -48 -49 -51 0
-46 -48 -52 -54 0
-46 -48 -55 -57 0
-46 -48 -58 -60 0
-47 -48 -50 -51 0
-47 -48 -53 -54 0
-47 -48 -56 -57 0
-47 -48 -59 -60 0
-49 -50 -52 -53 0
-49 -50 -55 -56 0
-49 -50 -58 -59 0
-49 -51 -52 -54 0
-49 -51 -55 -57 0
-49 -51 -58 -60 0
-50 -51 -53 -54 0
-50 -51 -56 -57 0
-50 -51 -59 -60 0
-52 -53 -55 -56 0
-52 -53 -58 -59 0
-52 -54 -55 -57 0
-52 -54 -58 -60 0
-53 -54 -56 -57 0
-53 -54 -59 -60 0
-55 -56 -58 -59 0
-55 -57 -58 -60 0
-56 -57 -59 -60 0
-1 -4 0
-10 -13 0
-19 -22 0
-28 -31 0
-37 -40 0
-4 -7 0
-13 -16 0
-22 -25 0
-31 -34 0
-40 -43 0
-2 -4 0
-2 -5 0
-11 -13 0
-11 -14 0
-20 -22 0
-20 -23 0
-29 -31 0
-29 -32 0
-38 -40 0
-38 -41 0
-5 -7 0
-5 -8 0
-14 -16 0
-14 -17 0
-23 -25 0
-23 -26 0
-32 -34 0
-32 -35 0
-41 -43 0
-41 -44 0
-3 -4 0
-3 -5 0
-3 -6 0
-12 -13 0
-12 -14 0
-12 -15 0
-21 -22 0
-21 -23 0
-21 -24 0
-30 -31 0
-30 -32 0
-30 -33 0
-39 -40 0
-39 -41 0
-39 -42 0
-6 -7 0
-6 -8 0
-6 -9 0
-15 -16 0
-15 -17 0
-15 -18 0
-24 -25 0
-24 -26 0
-24 -27 0
-33 -34 0
-33 -35 0
-33 -36 0
-42 -43 0
-42 -44 0
-42 -45 0
-4 -13 0
-13 -22 0
-22 -31 0
-31 -40 0
-5 -13 0
-5 -14 0
-14 -22 0
-14 -23 0
-23 -31 0
-23 -32 0
-32 -40 0
-32 -41 0
-6 -13 0
-6 -14 0
-6 -15 0
-15 -22 0
-15 -23 0
-15 -24 0
-24 -31 0
-24 -32 0
-24 -33 0
-33 -40 0
-33 -41 0
-33 -42 0
